p cnf 74 157
36 -14 12 -11 0
-36 14 0
-36 -12 0
-36 11 0
37 -1 0
-37 1 0
38 -21 19 -18 0
-38 21 0
-38 -19 0
-38 18 0
39 -29 27 -26 0
-39 29 0
-39 -27 0
-39 26 0
40 -8 7 -6 0
-40 8 0
-40 -7 0
-40 6 0
-2 36 37 38 39 40 0
2 -36 0
2 -37 0
2 -38 0
2 -39 0
2 -40 0
41 -19 -18 0
-41 19 0
-41 18 0
42 -3 -2 0
-42 3 0
-42 2 0
43 -7 -6 0
-43 7 0
-43 6 0
44 -27 -26 0
-44 27 0
-44 26 0
45 -12 -11 0
-45 12 0
-45 11 0
-4 41 42 43 44 45 0
4 -41 0
4 -42 0
4 -43 0
4 -44 0
4 -45 0
46 -15 13 -11 0
-46 15 0
-46 -13 0
-46 11 0
47 -31 28 -26 0
-47 31 0
-47 -28 0
-47 26 0
48 -5 0
-48 5 0
49 -23 20 -18 0
-49 23 0
-49 -20 0
-49 18 0
-6 46 47 48 49 0
6 -46 0
6 -47 0
6 -48 0
6 -49 0
50 -8 0
-50 8 0
51 -7 0
-51 7 0
-9 50 51 0
9 -50 0
9 -51 0
52 -33 30 -26 0
-52 33 0
-52 -30 0
-52 26 0
53 -24 22 -18 0
-53 24 0
-53 -22 0
-53 18 0
54 -10 0
-54 10 0
-11 52 53 54 0
11 -52 0
11 -53 0
11 -54 0
55 -12 0
-55 12 0
56 -14 0
-56 14 0
-13 55 56 0
13 -55 0
13 -56 0
57 -15 0
-57 15 0
58 -13 0
-58 13 0
-16 57 58 0
16 -57 0
16 -58 0
59 -34 32 -26 0
-59 34 0
-59 -32 0
-59 26 0
60 -17 0
-60 17 0
-18 59 60 0
18 -59 0
18 -60 0
61 -19 0
-61 19 0
62 -21 0
-62 21 0
-20 61 62 0
20 -61 0
20 -62 0
63 -23 0
-63 23 0
64 -20 0
-64 20 0
-22 63 64 0
22 -63 0
22 -64 0
65 -22 0
-65 22 0
66 -24 0
-66 24 0
-25 65 66 0
25 -65 0
25 -66 0
67 -29 0
-67 29 0
68 -27 0
-68 27 0
-28 67 68 0
28 -67 0
28 -68 0
69 -31 0
-69 31 0
70 -28 0
-70 28 0
-30 69 70 0
30 -69 0
30 -70 0
71 -30 0
-71 30 0
72 -33 0
-72 33 0
-32 71 72 0
32 -71 0
32 -72 0
73 -32 0
-73 32 0
74 -34 0
-74 34 0
-35 73 74 0
35 -73 0
35 -74 0
c p weight 1 0.5 0
c p weight -1 0.5 0
c p weight 2 1.0 0
c p weight -2 1.0 0
c p weight 3 1.0 0
c p weight -3 0.0 0
c p weight 4 1.0 0
c p weight -4 0.0 0
c p weight 5 0.5 0
c p weight -5 0.5 0
c p weight 6 1.0 0
c p weight -6 1.0 0
c p weight 7 0.5 0
c p weight -7 0.5 0
c p weight 8 1.0 0
c p weight -8 0.0 0
c p weight 9 1.0 0
c p weight -9 1.0 0
c p weight 10 0.5 0
c p weight -10 0.5 0
c p weight 11 1.0 0
c p weight -11 1.0 0
c p weight 12 0.3333333333333333 0
c p weight -12 0.6666666666666667 0
c p weight 13 1.0 0
c p weight -13 1.0 0
c p weight 14 0.49999999999999994 0
c p weight -14 0.5 0
c p weight 15 0.9999999999999997 0
c p weight -15 3.3306690738754696e-16 0
c p weight 16 1.0 0
c p weight -16 1.0 0
c p weight 17 0.5 0
c p weight -17 0.5 0
c p weight 18 1.0 0
c p weight -18 1.0 0
c p weight 19 0.25 0
c p weight -19 0.75 0
c p weight 20 1.0 0
c p weight -20 1.0 0
c p weight 21 0.3333333333333333 0
c p weight -21 0.6666666666666667 0
c p weight 22 1.0 0
c p weight -22 1.0 0
c p weight 23 0.5 0
c p weight -23 0.5 0
c p weight 24 1.0 0
c p weight -24 0.0 0
c p weight 25 1.0 0
c p weight -25 1.0 0
c p weight 26 0.5 0
c p weight -26 0.5 0
c p weight 27 0.2 0
c p weight -27 0.8 0
c p weight 28 1.0 0
c p weight -28 1.0 0
c p weight 29 0.25 0
c p weight -29 0.75 0
c p weight 30 1.0 0
c p weight -30 1.0 0
c p weight 31 0.3333333333333333 0
c p weight -31 0.6666666666666667 0
c p weight 32 1.0 0
c p weight -32 1.0 0
c p weight 33 0.49999999999999994 0
c p weight -33 0.5 0
c p weight 34 0.9999999999999998 0
c p weight -34 2.220446049250313e-16 0
c p weight 35 1.0 0
c p weight -35 1.0 0
c p weight 36 1.0 0
c p weight -36 1.0 0
c p weight 37 1.0 0
c p weight -37 1.0 0
c p weight 38 1.0 0
c p weight -38 1.0 0
c p weight 39 1.0 0
c p weight -39 1.0 0
c p weight 40 1.0 0
c p weight -40 1.0 0
c p weight 41 1.0 0
c p weight -41 1.0 0
c p weight 42 1.0 0
c p weight -42 1.0 0
c p weight 43 1.0 0
c p weight -43 1.0 0
c p weight 44 1.0 0
c p weight -44 1.0 0
c p weight 45 1.0 0
c p weight -45 1.0 0
c p weight 46 1.0 0
c p weight -46 1.0 0
c p weight 47 1.0 0
c p weight -47 1.0 0
c p weight 48 1.0 0
c p weight -48 1.0 0
c p weight 49 1.0 0
c p weight -49 1.0 0
c p weight 50 1.0 0
c p weight -50 1.0 0
c p weight 51 1.0 0
c p weight -51 1.0 0
c p weight 52 1.0 0
c p weight -52 1.0 0
c p weight 53 1.0 0
c p weight -53 1.0 0
c p weight 54 1.0 0
c p weight -54 1.0 0
c p weight 55 1.0 0
c p weight -55 1.0 0
c p weight 56 1.0 0
c p weight -56 1.0 0
c p weight 57 1.0 0
c p weight -57 1.0 0
c p weight 58 1.0 0
c p weight -58 1.0 0
c p weight 59 1.0 0
c p weight -59 1.0 0
c p weight 60 1.0 0
c p weight -60 1.0 0
c p weight 61 1.0 0
c p weight -61 1.0 0
c p weight 62 1.0 0
c p weight -62 1.0 0
c p weight 63 1.0 0
c p weight -63 1.0 0
c p weight 64 1.0 0
c p weight -64 1.0 0
c p weight 65 1.0 0
c p weight -65 1.0 0
c p weight 66 1.0 0
c p weight -66 1.0 0
c p weight 67 1.0 0
c p weight -67 1.0 0
c p weight 68 1.0 0
c p weight -68 1.0 0
c p weight 69 1.0 0
c p weight -69 1.0 0
c p weight 70 1.0 0
c p weight -70 1.0 0
c p weight 71 1.0 0
c p weight -71 1.0 0
c p weight 72 1.0 0
c p weight -72 1.0 0
c p weight 73 1.0 0
c p weight -73 1.0 0
c p weight 74 1.0 0
c p weight -74 1.0 0
c p semirings aspmc.semirings.probabilistic 0
c p quantify 1 2 3 4 5 6 7 8 9 10 11 12 13 14 15 16 17 18 19 20 21 22 23 24 25 26 27 28 29 30 31 32 33 34 35 36 37 38 39 40 41 42 43 44 45 46 47 48 49 50 51 52 53 54 55 56 57 58 59 60 61 62 63 64 65 66 67 68 69 70 71 72 73 74 0
c p auxilliary 2 6 9 11 13 16 18 20 22 25 28 30 32 35 36 37 38 39 40 41 42 43 44 45 46 47 48 49 50 51 52 53 54 55 56 57 58 59 60 61 62 63 64 65 66 67 68 69 70 71 72 73 74 0
